SPARKNaCl/why3-z3/sparknacl-hashing-sha256.adb_272_41_range_check_1.smt2
;; produced by z3_gnatprove.drv ;;
(set-info :smt-lib-version 2.5)
(set-info :source |VC generated by SPARK 2014|)
(set-info :category industrial)
(set-info :status unknown)
;;; generated by SMT-LIB2 driver
;;; SMT-LIB2 driver: bit-vectors, common part
;;; SMT-LIB2: integer arithmetic
(define-fun __cdiv ((x Int) (y Int)) Int (ite (>= x 0) (div x y) (- (div (- x) y))))
(define-fun __cmod ((x Int) (y Int)) Int (ite (>= x 0) (mod x y) (- (mod (- x) y))))
(declare-datatypes ()
  ((int__ref (int__refqtmk (int__content Int)))))

;; "mod"
(define-fun mod1 ((x Int) (y Int)) Int
  (ite (<= 0 y) (mod x y) (- (mod (- x) y))))

(declare-sort byte 0)

;; "to_rep"
(declare-fun to_rep (byte) (_ BitVec 8))

;; "of_rep"
(declare-fun of_rep ((_ BitVec 8)) byte)

;; "inversion_axiom"
(assert
  (forall ((x byte)) (! (= (of_rep (to_rep x)) x) :pattern ((to_rep x)) )))

;; "range_axiom"
(assert true)

;; "coerce_axiom"
(assert
  (forall ((x (_ BitVec 8)))
    (! (= (to_rep (of_rep x)) x) :pattern ((to_rep (of_rep x))) )))

(declare-sort map1 0)

(declare-datatypes ()
  ((map__ref (map__refqtmk (map__content map1)))))

;; "has_bounds"
(declare-fun has_bounds (map1
  Int
  Int) Bool)

;; "get"
(declare-fun get (map1
  Int) byte)

(declare-sort tinteger_32B 0)

;; "tinteger_32B'int"
(declare-fun tinteger_32Bqtint (tinteger_32B) Int)

;; "tinteger_32B'axiom"
(assert
  (forall ((i tinteger_32B))
    (and
      (<= (- 2147483648) (tinteger_32Bqtint i))
      (<= (tinteger_32Bqtint i) 2147483647))))

;; "in_range"
(define-fun in_range ((x Int)) Bool
  (and (<= (- 2147483648) x) (<= x 2147483647)))

;; "to_rep"
(define-fun to_rep1 ((x tinteger_32B)) Int
  (tinteger_32Bqtint x))

;; "of_rep"
(declare-fun of_rep1 (Int) tinteger_32B)

;; "inversion_axiom"
(assert
  (forall ((x tinteger_32B))
    (! (= (of_rep1 (to_rep1 x)) x) :pattern ((to_rep1 x)) )))

;; "range_axiom"
(assert
  (forall ((x tinteger_32B))
    (! (in_range (to_rep1 x)) :pattern ((to_rep1 x)) )))

;; "coerce_axiom"
(assert
  (forall ((x Int))
    (! (=> (in_range x) (= (to_rep1 (of_rep1 x)) x)) :pattern ((to_rep1
                                                                 (of_rep1 x))) )))

;; "in_range"
(define-fun in_range1 ((x Int)) Bool
  (and (<= 0 x) (<= x 2147483647)))

(declare-datatypes ()
  ((t (tqtmk (rec__first tinteger_32B)(rec__last tinteger_32B)))))

;; "dynamic_property"
(define-fun dynamic_property ((range_first Int) (range_last Int) (low Int) (high Int)) Bool
  (and
    (in_range low)
    (and
      (in_range high)
      (=> (<= low high) (and (in_range1 low) (in_range1 high))))))

(declare-datatypes ()
  ((us_t (us_tqtmk (elts map1)(rt t)))))

;; "first"
(define-fun first ((a us_t)) Int
  (to_rep1 (rec__first (rt a))))

;; "last"
(define-fun last ((a us_t)) Int
  (to_rep1 (rec__last (rt a))))

;; "length"
(define-fun length ((a us_t)) Int
  (ite (<= (first a) (last a)) (+ (- (last a) (first a)) 1) 0))

;; "well_formed"
(define-fun well_formed ((a us_t)) Bool
  (has_bounds
    (elts a)
    (to_rep1 (rec__first (rt a)))
    (to_rep1 (rec__last (rt a)))))

(declare-const m us_t)

(declare-const iv_256 map1)

;; "in_range"
(define-fun in_range2 ((x Int)) Bool
  (and (<= (- 2147483648) x) (<= x 2147483647)))

;; "dynamic_invariant"
(define-fun dynamic_invariant ((temp___expr_326 us_t) (temp___is_init_322 Bool) (temp___skip_constant_323 Bool) (temp___do_toplevel_324 Bool) (temp___do_typ_inv_325 Bool)) Bool
  (and
    (=>
      (not (= temp___skip_constant_323 true))
      (dynamic_property
        0
        2147483647
        (first temp___expr_326)
        (last temp___expr_326)))
    (well_formed temp___expr_326)))

;; "ada___ada___sparknacl__hashing__sha256__iv_256__aggregate_def"
(declare-fun ada___ada___sparknacl__hashing__sha256__iv_256__aggregate_def ((_ BitVec 8)
  (_ BitVec 8)
  (_ BitVec 8)
  (_ BitVec 8)
  (_ BitVec 8)
  (_ BitVec 8)
  (_ BitVec 8)
  (_ BitVec 8)
  (_ BitVec 8)
  (_ BitVec 8)
  (_ BitVec 8)
  (_ BitVec 8)
  (_ BitVec 8)
  (_ BitVec 8)
  (_ BitVec 8)
  (_ BitVec 8)
  (_ BitVec 8)
  (_ BitVec 8)
  (_ BitVec 8)
  (_ BitVec 8)
  (_ BitVec 8)
  (_ BitVec 8)
  (_ BitVec 8)
  (_ BitVec 8)
  (_ BitVec 8)
  (_ BitVec 8)
  (_ BitVec 8)
  (_ BitVec 8)
  (_ BitVec 8)
  (_ BitVec 8)
  (_ BitVec 8)
  (_ BitVec 8)) map1)

;; "in_range"
(define-fun in_range3 ((x Int)) Bool
  (and (<= 0 x) (<= x 63)))

;; "temp_____aggregate_def_675"
(declare-fun temp_____aggregate_def_675 ((_ BitVec 8)) map1)

;; "iv_256__def_axiom"
(assert
  (= iv_256 (let ((temp___205 (ada___ada___sparknacl__hashing__sha256__iv_256__aggregate_def
                                #x6A
                                #x09
                                #xE6
                                #x67
                                #xBB
                                #x67
                                #xAE
                                #x85
                                #x3C
                                #x6E
                                #xF3
                                #x72
                                #xA5
                                #x4F
                                #xF5
                                #x3A
                                #x51
                                #x0E
                                #x52
                                #x7F
                                #x9B
                                #x05
                                #x68
                                #x8C
                                #x1F
                                #x83
                                #xD9
                                #xAB
                                #x5B
                                #xE0
                                #xCD
                                #x19)))
              (let ((temp___206 temp___205)) temp___206))))

;; "def_axiom"
(assert
  (forall ((temp___170 (_ BitVec 8)) (temp___171 (_ BitVec 8)) (temp___172 (_ BitVec 8)) (temp___173 (_ BitVec 8)) (temp___174 (_ BitVec 8)) (temp___175 (_ BitVec 8)) (temp___176 (_ BitVec 8)) (temp___177 (_ BitVec 8)) (temp___178 (_ BitVec 8)) (temp___179 (_ BitVec 8)) (temp___180 (_ BitVec 8)) (temp___181 (_ BitVec 8)) (temp___182 (_ BitVec 8)) (temp___183 (_ BitVec 8)) (temp___184 (_ BitVec 8)) (temp___185 (_ BitVec 8)) (temp___186 (_ BitVec 8)) (temp___187 (_ BitVec 8)) (temp___188 (_ BitVec 8)) (temp___189 (_ BitVec 8)) (temp___190 (_ BitVec 8)) (temp___191 (_ BitVec 8)) (temp___192 (_ BitVec 8)) (temp___193 (_ BitVec 8)) (temp___194 (_ BitVec 8)) (temp___195 (_ BitVec 8)) (temp___196 (_ BitVec 8)) (temp___197 (_ BitVec 8)) (temp___198 (_ BitVec 8)) (temp___199 (_ BitVec 8)) (temp___200 (_ BitVec 8)) (temp___201 (_ BitVec 8)))
    (let ((temp___202 (ada___ada___sparknacl__hashing__sha256__iv_256__aggregate_def
                        temp___170
                        temp___171
                        temp___172
                        temp___173
                        temp___174
                        temp___175
                        temp___176
                        temp___177
                        temp___178
                        temp___179
                        temp___180
                        temp___181
                        temp___182
                        temp___183
                        temp___184
                        temp___185
                        temp___186
                        temp___187
                        temp___188
                        temp___189
                        temp___190
                        temp___191
                        temp___192
                        temp___193
                        temp___194
                        temp___195
                        temp___196
                        temp___197
                        temp___198
                        temp___199
                        temp___200
                        temp___201)))
      (and
        (and
          (and
            (= (to_rep (get temp___202 0)) temp___170)
            (= (to_rep (get temp___202 1)) temp___171))
          (and
            (and
              (and
                (and
                  (and
                    (= (to_rep (get temp___202 2)) temp___172)
                    (= (to_rep (get temp___202 3)) temp___173))
                  (and
                    (= (to_rep (get temp___202 4)) temp___174)
                    (= (to_rep (get temp___202 5)) temp___175)))
                (and
                  (and
                    (= (to_rep (get temp___202 6)) temp___176)
                    (= (to_rep (get temp___202 7)) temp___177))
                  (and
                    (= (to_rep (get temp___202 8)) temp___178)
                    (= (to_rep (get temp___202 9)) temp___179))))
              (and
                (and
                  (and
                    (= (to_rep (get temp___202 10)) temp___180)
                    (= (to_rep (get temp___202 11)) temp___181))
                  (and
                    (= (to_rep (get temp___202 12)) temp___182)
                    (= (to_rep (get temp___202 13)) temp___183)))
                (and
                  (and
                    (= (to_rep (get temp___202 14)) temp___184)
                    (= (to_rep (get temp___202 15)) temp___185))
                  (= (to_rep (get temp___202 16)) temp___186))))
            (and
              (and
                (and
                  (and
                    (= (to_rep (get temp___202 17)) temp___187)
                    (= (to_rep (get temp___202 18)) temp___188))
                  (and
                    (= (to_rep (get temp___202 19)) temp___189)
                    (= (to_rep (get temp___202 20)) temp___190)))
                (and
                  (and
                    (= (to_rep (get temp___202 21)) temp___191)
                    (= (to_rep (get temp___202 22)) temp___192))
                  (and
                    (= (to_rep (get temp___202 23)) temp___193)
                    (= (to_rep (get temp___202 24)) temp___194))))
              (and
                (and
                  (and
                    (= (to_rep (get temp___202 25)) temp___195)
                    (= (to_rep (get temp___202 26)) temp___196))
                  (and
                    (= (to_rep (get temp___202 27)) temp___197)
                    (= (to_rep (get temp___202 28)) temp___198)))
                (and
                  (and
                    (= (to_rep (get temp___202 29)) temp___199)
                    (= (to_rep (get temp___202 30)) temp___200))
                  (= (to_rep (get temp___202 31)) temp___201))))))
        (=>
          (and
            (and (and (<= 0 0) (<= 0 31)) (and (<= 0 1) (<= 1 31)))
            (and
              (and
                (and
                  (and
                    (and (and (<= 0 2) (<= 2 31)) (and (<= 0 3) (<= 3 31)))
                    (and (and (<= 0 4) (<= 4 31)) (and (<= 0 5) (<= 5 31))))
                  (and
                    (and (and (<= 0 6) (<= 6 31)) (and (<= 0 7) (<= 7 31)))
                    (and (and (<= 0 8) (<= 8 31)) (and (<= 0 9) (<= 9 31)))))
                (and
                  (and
                    (and
                      (and (<= 0 10) (<= 10 31))
                      (and (<= 0 11) (<= 11 31)))
                    (and
                      (and (<= 0 12) (<= 12 31))
                      (and (<= 0 13) (<= 13 31))))
                  (and
                    (and
                      (and (<= 0 14) (<= 14 31))
                      (and (<= 0 15) (<= 15 31)))
                    (and (<= 0 16) (<= 16 31)))))
              (and
                (and
                  (and
                    (and
                      (and (<= 0 17) (<= 17 31))
                      (and (<= 0 18) (<= 18 31)))
                    (and
                      (and (<= 0 19) (<= 19 31))
                      (and (<= 0 20) (<= 20 31))))
                  (and
                    (and
                      (and (<= 0 21) (<= 21 31))
                      (and (<= 0 22) (<= 22 31)))
                    (and
                      (and (<= 0 23) (<= 23 31))
                      (and (<= 0 24) (<= 24 31)))))
                (and
                  (and
                    (and
                      (and (<= 0 25) (<= 25 31))
                      (and (<= 0 26) (<= 26 31)))
                    (and
                      (and (<= 0 27) (<= 27 31))
                      (and (<= 0 28) (<= 28 31))))
                  (and
                    (and
                      (and (<= 0 29) (<= 29 31))
                      (and (<= 0 30) (<= 30 31)))
                    (and (<= 0 31) (<= 31 31)))))))
          (has_bounds temp___202 0 31))))))

(declare-const output map1)

(declare-const h map1)

(declare-const x map1)

(declare-const b Int)

(declare-const final_block_first Int)

;; "final_block_first'unused"
(define-fun final_block_firstqtunused () int__ref
  (int__refqtmk final_block_first))

;; "b'unused"
(define-fun bqtunused () int__ref
  (int__refqtmk b))

;; "x'unused"
(define-fun xqtunused () map__ref
  (map__refqtmk x))

;; "h'unused"
(define-fun hqtunused () map__ref
  (map__refqtmk h))

;; "Assume"
(assert (has_bounds iv_256 0 31))

(declare-const temp___766 map1)

;; "H"
(assert (= (to_rep (get temp___766 0)) #x6A))

;; "H"
(assert (= (to_rep (get temp___766 1)) #x09))

;; "H"
(assert (= (to_rep (get temp___766 2)) #xE6))

;; "H"
(assert (= (to_rep (get temp___766 3)) #x67))

;; "H"
(assert (= (to_rep (get temp___766 4)) #xBB))

;; "H"
(assert (= (to_rep (get temp___766 5)) #x67))

;; "H"
(assert (= (to_rep (get temp___766 6)) #xAE))

;; "H"
(assert (= (to_rep (get temp___766 7)) #x85))

;; "H"
(assert (= (to_rep (get temp___766 8)) #x3C))

;; "H"
(assert (= (to_rep (get temp___766 9)) #x6E))

;; "H"
(assert (= (to_rep (get temp___766 10)) #xF3))

;; "H"
(assert (= (to_rep (get temp___766 11)) #x72))

;; "H"
(assert (= (to_rep (get temp___766 12)) #xA5))

;; "H"
(assert (= (to_rep (get temp___766 13)) #x4F))

;; "H"
(assert (= (to_rep (get temp___766 14)) #xF5))

;; "H"
(assert (= (to_rep (get temp___766 15)) #x3A))

;; "H"
(assert (= (to_rep (get temp___766 16)) #x51))

;; "H"
(assert (= (to_rep (get temp___766 17)) #x0E))

;; "H"
(assert (= (to_rep (get temp___766 18)) #x52))

;; "H"
(assert (= (to_rep (get temp___766 19)) #x7F))

;; "H"
(assert (= (to_rep (get temp___766 20)) #x9B))

;; "H"
(assert (= (to_rep (get temp___766 21)) #x05))

;; "H"
(assert (= (to_rep (get temp___766 22)) #x68))

;; "H"
(assert (= (to_rep (get temp___766 23)) #x8C))

;; "H"
(assert (= (to_rep (get temp___766 24)) #x1F))

;; "H"
(assert (= (to_rep (get temp___766 25)) #x83))

;; "H"
(assert (= (to_rep (get temp___766 26)) #xD9))

;; "H"
(assert (= (to_rep (get temp___766 27)) #xAB))

;; "H"
(assert (= (to_rep (get temp___766 28)) #x5B))

;; "H"
(assert (= (to_rep (get temp___766 29)) #xE0))

;; "H"
(assert (= (to_rep (get temp___766 30)) #xCD))

;; "H"
(assert (= (to_rep (get temp___766 31)) #x19))

;; "H"
(assert (has_bounds temp___766 0 31))

;; "H"
(assert
  (= temp___766 (ada___ada___sparknacl__hashing__sha256__iv_256__aggregate_def
                  #x6A
                  #x09
                  #xE6
                  #x67
                  #xBB
                  #x67
                  #xAE
                  #x85
                  #x3C
                  #x6E
                  #xF3
                  #x72
                  #xA5
                  #x4F
                  #xF5
                  #x3A
                  #x51
                  #x0E
                  #x52
                  #x7F
                  #x9B
                  #x05
                  #x68
                  #x8C
                  #x1F
                  #x83
                  #xD9
                  #xAB
                  #x5B
                  #xE0
                  #xCD
                  #x19)))

;; "ada___ada___sparknacl__hashing__sha256__iv_256__aggregate_def'result'unused"
(define-fun ada___ada___sparknacl__hashing__sha256__iv_256__aggregate_defqtresultqtunused 
  () map1
  temp___766)

;; "Assume"
(assert (= temp___766 iv_256))

;; "Assume"
(assert (has_bounds output 0 31))

;; "Assume"
(assert (dynamic_invariant m true false true true))

;; "Assume"
(assert true)

;; "Assume"
(assert (has_bounds h 0 31))

;; "Assume"
(assert true)

;; "Assume"
(assert (has_bounds x 0 127))

;; "Assume"
(assert true)

;; "Assume"
(assert (in_range3 b))

;; "Assume"
(assert true)

;; "Assume"
(assert (in_range2 final_block_first))

(declare-const h1 map1)

;; "h'unused"
(define-fun hqtunused1 () map__ref
  (map__refqtmk h1))

;; "H"
(assert (= h1 iv_256))

(declare-const temp___679 map1)

;; "H"
(assert (has_bounds temp___679 0 127))

;; "H"
(assert
  (forall ((temp___678 Int))
    (! (=>
         (and (<= 0 temp___678) (<= temp___678 127))
         (= (to_rep (get temp___679 temp___678)) #x00)) :pattern ((get
                                                                    temp___679
                                                                    temp___678)) )))

;; "H"
(assert (= temp___679 (temp_____aggregate_def_675 #x00)))

;; "temp_____aggregate_def_675'result'unused"
(define-fun temp_____aggregate_def_675qtresultqtunused () map1
  temp___679)

(declare-const x1 map1)

;; "x'unused"
(define-fun xqtunused1 () map__ref
  (map__refqtmk x1))

;; "H"
(assert (= x1 temp___679))

;; "map__content'result'unused"
(define-fun map__contentqtresultqtunused () map1
  h1)

;; "param__x'unused"
(define-fun param__xqtunused () map__ref
  (map__refqtmk h1))

;; "map__ref'mk'result'unused"
(define-fun map__refqtmkqtresultqtunused () map__ref
  (map__refqtmk h1))

(declare-const param__x map1)

;; "param__x'unused"
(define-fun param__xqtunused1 () map__ref
  (map__refqtmk param__x))

;; "H"
(assert (has_bounds param__x 0 31))

;; "H"
(assert true)

;; "H"
(assert true)

;; "map__content'result'unused"
(define-fun map__contentqtresultqtunused1 () map1
  param__x)

(declare-const h2 map1)

;; "h'unused"
(define-fun hqtunused2 () map__ref
  (map__refqtmk h2))

;; "H"
(assert (= h2 param__x))

;; "o"
(define-fun o () Int
  (length m))

;; "length'result'unused"
(define-fun lengthqtresultqtunused () Int
  o)

;; "o"
(define-fun o1 () Int
  (mod1 o 64))

;; "mod_'result'unused"
(define-fun mod_qtresultqtunused () Int
  o1)

;; Goal "def'vc"
;; File "sparknacl-hashing-sha256.ads", line 12, characters 0-0
(assert
  (not (<= 0 o1)))

(check-sat)
